57
120
96	2
94	3
93	1
92	3
91	1
90	1
89	1
88	2
86	3
84	1
83	4
82	2
79	2
78	1
77	1
75	2
74	4
73	1
72	1
71	1
69	1
68	1
67	2
66	1
65	1
64	4
63	1
60	2
59	1
58	2
57	2
56	1
55	3
54	2
53	3
52	2
51	2
48	1
47	2
45	3
44	1
43	2
41	2
39	1
38	1
37	2
36	1
34	1
33	2
31	1
30	1
29	4
28	1
27	1
26	3
25	1
24	1
